tolerance 2.000000
filetype pdb
output packmol_output.pdb

movebadrandom

nloop 500

structure /home/joelaforet/Shirts-Lab-Linux/polyzymd/src/polyzymd/builders/conjugation/poc/output/walkthrough-generated-product/packmol_modifier_placement/protein_fixed_sterics.pdb
  number 1
  fixed 0. 0. 0. 0. 0. 0.
end structure

structure /home/joelaforet/Shirts-Lab-Linux/polyzymd/src/polyzymd/builders/conjugation/poc/output/walkthrough-generated-product/packmol_modifier_placement/modifier_retained.pdb
  number 1
  inside box 0. 0. 0. 76.333000 78.470000 78.795000
  atoms 163
  inside sphere 37.029000 40.183000 32.460000 5.0
  end atoms
end structure
